c description: Tseitin formula on Random 4-regular graph of 7 vertices, with odd charge
c generator: CNFgen (0.9.0)
c copyright: (C) 2012-2020 Massimo Lauria <massimo.lauria@uniroma1.it>
c url: https://massimolauria.net/cnfgen
c command line: cnfgen tseitin 7
c
p cnf 14 56
1 2 3 4 0
1 2 -3 -4 0
1 -2 3 -4 0
1 -2 -3 4 0
-1 2 3 -4 0
-1 2 -3 4 0
-1 -2 3 4 0
-1 -2 -3 -4 0
1 5 6 7 0
1 5 -6 -7 0
1 -5 6 -7 0
1 -5 -6 7 0
-1 5 6 -7 0
-1 5 -6 7 0
-1 -5 6 7 0
-1 -5 -6 -7 0
2 8 9 10 0
2 8 -9 -10 0
2 -8 9 -10 0
2 -8 -9 10 0
-2 8 9 -10 0
-2 8 -9 10 0
-2 -8 9 10 0
-2 -8 -9 -10 0
5 8 11 -12 0
5 8 -11 12 0
5 -8 11 12 0
5 -8 -11 -12 0
-5 8 11 12 0
-5 8 -11 -12 0
-5 -8 11 -12 0
-5 -8 -11 12 0
6 9 11 13 0
6 9 -11 -13 0
6 -9 11 -13 0
6 -9 -11 13 0
-6 9 11 -13 0
-6 9 -11 13 0
-6 -9 11 13 0
-6 -9 -11 -13 0
3 7 10 -14 0
3 7 -10 14 0
3 -7 10 14 0
3 -7 -10 -14 0
-3 7 10 14 0
-3 7 -10 -14 0
-3 -7 10 -14 0
-3 -7 -10 14 0
4 12 13 14 0
4 12 -13 -14 0
4 -12 13 -14 0
4 -12 -13 14 0
-4 12 13 -14 0
-4 12 -13 14 0
-4 -12 13 14 0
-4 -12 -13 -14 0
